 $CONTRL SCFTYP=ROHF RUNTYP=OPTIMIZE MULT=2 $END
 $BASIS GBASIS=N311 NGAUSS=6 NDFUNC=1  $END
 $DATA
    6-311G(d) CN
Cnv 4

C  6.0   0.0 0.0 0.0
N  7.0   0.0 0.0 1.1718
  $END
