 $CONTRL SCFTYP=RHF RUNTYP=OPTIMIZE $END
 $BASIS GBASIS=N311 NGAUSS=6 NDFUNC=1  $END
 $DATA
    6-311G(d) HCN
CS

N   7.0   -.0004620071    .0002821165    .0000000000
C   6.0   1.2208931990   -.0003427488    .0000000000
H   1.0    .8654562191   1.1478852258    .0000000000
  $END
