 $CONTRL SCFTYP=RHF RUNTYP=OPTIMIZE $END
 $BASIS GBASIS=N21 NGAUSS=3  $END
 $DATA
    3-21G N2
    CNV 2 
    
 N     7.0    -0.5820172282     0.0000000000     0.0000000000
  $END
