 $CONTRL SCFTYP=RHF RUNTYP=OPTIMIZE $END
 $BASIS GBASIS=N311 NGAUSS=6 NDFUNC=1  $END
 $DATA
    6-311G(d) N2
    CNV 2 
    
 N     7.0    -0.5820172282     0.0000000000     0.0000000000
  $END
